unsat
(define-fun InvF ((i Int) (n Int) (sn Int)) Bool (and (or (not (>= (+ i (* (- 1) n)) 1)) (= n sn) (= sn 0)) (= i (+ 1 sn))))
0.04user 0.00system 0:00.04elapsed 100%CPU (0avgtext+0avgdata 25536maxresident)k
0inputs+8outputs (0major+1175minor)pagefaults 0swaps
